p tw 61 67
1 2
2 13
3 4
4 5
5 6
6 7
7 8
8 9
9 10
9 43
10 11
11 12
12 14
13 24
14 15
15 16
16 17
17 18
18 19
18 23
19 20
20 21
21 22
22 47
23 25
24 35
24 57
25 26
26 27
27 28
27 38
28 29
29 30
30 31
30 36
31 32
32 33
33 34
34 47
35 46
36 37
37 38
38 39
39 40
40 41
41 42
42 60
43 44
44 45
45 47
46 54
47 48
48 49
49 50
49 54
50 51
51 52
51 54
52 53
53 54
54 55
55 56
56 58
57 59
59 60
60 61
61 3
